n_res = 4;
rcap = [17, 16, 57, 48];
rtype = [1, 1, 2, 2];
n_tasks = 16;
modes = [ {1}, {2}, {3}, {4}, {5}, {6}, {7}, {8}, {9}, {10}, {11}, {12}, {13}, {14}, {15}, {16} ];
succ = [ {6, 11, 12}, {5, 7, 8}, {4, 5, 13}, {6, 10}, {9, 10}, {7, 14, 15}, {16}, {11, 15}, {12}, {12, 16}, {13, 16}, {14, 15}, {14}, {}, {}, {} ];
n_opt = 16;
dur = [5, 5, 1, 5, 2, 10, 3, 10, 7, 10, 3, 6, 9, 4, 1, 5];
rreq = [|  3,  7,  6,  4,  2,  0,  0,  6,  7,  4,  0,  5,  0,  0,  0,  5
        |  0,  0,  0,  0,  0,  3,  6,  0,  0,  0, 10,  0,  6,  4,  8,  0
        |  0,  7,  7,  9,  6,  0,  0,  6,  0,  7,  4,  5,  0,  6,  0,  0
        |  7,  0,  0,  0,  0,  9,  6,  0,  7,  0,  0,  0,  6,  0,  9,  4 |];
